Optimal - objective value 1.00000000
      0 C0000000               0                      -0
      1 C0000001               0                      -0
      2 C0000002               0                      -0
      3 C0000003               0                      -0
      4 C0000004               0                      -0
      5 C0000005               0                      -0
      6 C0000006               0                      -0
      7 C0000007               0                      -0
      8 C0000008               0                      -0
      9 C0000009               0                      -0
     10 C0000010               0                      -0
     11 C0000011               0                      -0
     12 C0000012               0                      -0
     13 C0000013               0                      -0
     14 C0000014               0                      -0
     15 C0000015               0                      -0
     16 C0000016               0                      -0
     17 C0000017               1                      -0
      0 X0000000               1                       1
      1 X0000001               0                       0
      2 X0000002               0                       0
      3 X0000003               0                       0
      4 X0000004               0                       0
      5 X0000005               0                       0
      6 X0000006               0                       0
      7 X0000007               0                       0
      8 X0000008               0                       0
      9 X0000009               0                       0
     10 X0000010               0                       0
     11 X0000011               0                       0
     12 X0000012               0                       0
     13 X0000013               0                       0
     14 X0000014               0                       0
     15 X0000015               0                       0
     16 X0000016               0                       0
     17 X0000017               0                       0
     18 X0000018               0                       0
     19 X0000019               0                       0
     20 X0000020               0                       0
     21 X0000021               0                       0
     22 X0000022               0                       0
     23 X0000023               0                       0
     24 X0000024               0                       0
     25 X0000025               0                       0
     26 X0000026               0                       0
     27 X0000027               0                       0
     28 X0000028               0                       0
     29 X0000029               0                       0
     30 X0000030               0                       0
     31 X0000031               0                       0
     32 X0000032               0                       0
     33 X0000033               0                       0
     34 X0000034               0                       0
     35 X0000035               0                       0
     36 X0000036               0                       0
     37 X0000037               0                       0
     38 X0000038               0                       0
     39 X0000039               0                       0
     40 X0000040               0                       0
     41 X0000041               1                       0
